\ENCODING=ISO-8859-1
\Problem name: GAPinst

Minimize
 obj1: 10 x0 + 11 x1 + 12 x2 + 13 x3 + 14 x4 + 15 x5 + 16 x6 + 17 x7 + 22 x8
       + 24 x9 + 26 x10 + 28 x11 + 30 x12 + 32 x13 + 34 x14 + 36 x15 + 60 x16
       + 64 x17 + 68 x18 + 72 x19 + 76 x20 + 80 x21 + 84 x22 + 88 x23
Subject To
 c0:  x0 + x8 + x16  = 1
 c1:  x1 + x9 + x17  = 1
 c2:  x2 + x10 + x18  = 1
 c3:  x3 + x11 + x19  = 1
 c4:  x4 + x12 + x20  = 1
 c5:  x5 + x13 + x21  = 1
 c6:  x6 + x14 + x22  = 1
 c7:  x7 + x15 + x23  = 1
 c8:  48 x0 + 47 x1 + 46 x2 + 45 x3 + 44 x4 + 43 x5 + 42 x6 + 41 x7 <= 160
 c9:  38 x8 + 37 x9 + 36 x10 + 35 x11 + 34 x12 + 33 x13 + 32 x14 + 31 x15 <= 90
 c10: 28 x16 + 27 x17 + 26 x18 + 25 x19 + 24 x20 + 23 x21 + 22 x22 + 21 x23
      <= 70
Bounds
      x0 = 0
      x1 = 0
      x2 = 0
      x3 = 0
 0 <= x4 <= 1
 0 <= x5 <= 1
 0 <= x6 <= 1
 0 <= x7 <= 1
      x8 = 0
 0 <= x9 <= 1
 0 <= x10 <= 1
 0 <= x11 <= 1
 0 <= x12 <= 1
      x13 = 0
      x14 = 0
      x15 = 0
 0 <= x16 <= 1
 0 <= x17 <= 1
      x18 = 0
      x19 = 0
      x20 = 0
 0 <= x21 <= 1
      x22 = 0
      x23 = 0
Binaries
 x0  x1  x2  x3  x4  x5  x6  x7  x8  x9  x10  x11  x12  x13  x14  x15  x16 
 x17  x18  x19  x20  x21  x22  x23 
End
